NAME: cuum710.tsp
TYPE: TSP
COMMENT: User-generated TSP file
DIMENSION: 710
EDGE_WEIGHT_TYPE: EUC_2D
NODE_COORD_SECTION
1 574.0 313.0
2 253.0 67.0
3 649.0 27.0
4 651.0 416.0
5 672.0 347.0
6 332.0 213.0
7 490.0 194.0
8 22.0 472.0
9 212.0 55.0
10 635.0 614.0
11 306.0 440.0
12 432.0 518.0
13 106.0 239.0
14 91.0 662.0
15 165.0 40.0
16 47.0 105.0
17 348.0 695.0
18 4.0 434.0
19 317.0 147.0
20 590.0 379.0
21 500.0 405.0
22 651.0 571.0
23 260.0 643.0
24 632.0 163.0
25 242.0 176.0
26 224.0 685.0
27 11.0 250.0
28 576.0 235.0
29 39.0 133.0
30 501.0 128.0
31 328.0 527.0
32 189.0 553.0
33 80.0 559.0
34 202.0 447.0
35 624.0 119.0
36 131.0 655.0
37 173.0 596.0
38 548.0 559.0
39 384.0 305.0
40 412.0 62.0
41 313.0 161.0
42 31.0 709.0
43 371.0 84.0
44 586.0 365.0
45 229.0 315.0
46 140.0 615.0
47 481.0 463.0
48 537.0 271.0
49 307.0 650.0
50 81.0 474.0
51 275.0 163.0
52 622.0 217.0
53 321.0 594.0
54 618.0 57.0
55 376.0 490.0
56 215.0 138.0
57 553.0 562.0
58 523.0 630.0
59 491.0 40.0
60 342.0 615.0
61 275.0 303.0
62 594.0 455.0
63 213.0 10.0
64 17.0 432.0
65 464.0 538.0
66 605.0 205.0
67 653.0 197.0
68 292.0 5.0
69 325.0 208.0
70 206.0 347.0
71 31.0 564.0
72 224.0 339.0
73 306.0 318.0
74 174.0 604.0
75 360.0 347.0
76 653.0 423.0
77 464.0 236.0
78 197.0 25.0
79 594.0 487.0
80 87.0 683.0
81 635.0 584.0
82 251.0 641.0
83 383.0 42.0
84 178.0 405.0
85 9.0 52.0
86 149.0 514.0
87 614.0 438.0
88 570.0 554.0
89 561.0 95.0
90 443.0 675.0
91 64.0 33.0
92 183.0 439.0
93 492.0 364.0
94 327.0 454.0
95 425.0 59.0
96 452.0 104.0
97 41.0 419.0
98 446.0 639.0
99 197.0 281.0
100 197.0 457.0
101 143.0 630.0
102 272.0 470.0
103 631.0 501.0
104 593.0 73.0
105 220.0 322.0
106 340.0 10.0
107 678.0 461.0
108 197.0 279.0
109 124.0 123.0
110 422.0 655.0
111 275.0 196.0
112 200.0 408.0
113 163.0 566.0
114 244.0 458.0
115 567.0 16.0
116 157.0 66.0
117 436.0 232.0
118 432.0 613.0
119 324.0 79.0
120 418.0 349.0
121 506.0 43.0
122 160.0 546.0
123 528.0 258.0
124 125.0 104.0
125 620.0 616.0
126 686.0 91.0
127 163.0 506.0
128 141.0 529.0
129 706.0 583.0
130 503.0 488.0
131 515.0 163.0
132 618.0 15.0
133 351.0 2.0
134 293.0 38.0
135 78.0 440.0
136 388.0 46.0
137 205.0 570.0
138 73.0 644.0
139 148.0 40.0
140 463.0 181.0
141 537.0 515.0
142 616.0 709.0
143 335.0 613.0
144 382.0 309.0
145 559.0 504.0
146 280.0 162.0
147 398.0 274.0
148 600.0 100.0
149 619.0 425.0
150 583.0 296.0
151 21.0 531.0
152 448.0 654.0
153 374.0 124.0
154 682.0 330.0
155 647.0 16.0
156 514.0 105.0
157 217.0 249.0
158 248.0 397.0
159 46.0 109.0
160 692.0 313.0
161 545.0 635.0
162 235.0 292.0
163 287.0 566.0
164 56.0 183.0
165 36.0 650.0
166 398.0 621.0
167 574.0 612.0
168 457.0 108.0
169 202.0 654.0
170 208.0 232.0
171 194.0 138.0
172 19.0 477.0
173 638.0 323.0
174 693.0 60.0
175 110.0 369.0
176 133.0 481.0
177 190.0 279.0
178 113.0 341.0
179 402.0 222.0
180 92.0 48.0
181 452.0 119.0
182 440.0 128.0
183 347.0 482.0
184 362.0 266.0
185 485.0 382.0
186 235.0 508.0
187 642.0 466.0
188 266.0 109.0
189 602.0 418.0
190 503.0 584.0
191 95.0 472.0
192 284.0 223.0
193 15.0 166.0
194 441.0 417.0
195 73.0 12.0
196 412.0 563.0
197 162.0 436.0
198 443.0 52.0
199 203.0 132.0
200 413.0 670.0
201 614.0 99.0
202 576.0 615.0
203 693.0 462.0
204 251.0 100.0
205 678.0 576.0
206 469.0 458.0
207 11.0 530.0
208 334.0 209.0
209 108.0 700.0
210 251.0 270.0
211 338.0 311.0
212 155.0 5.0
213 602.0 376.0
214 610.0 474.0
215 690.0 239.0
216 604.0 533.0
217 172.0 102.0
218 193.0 502.0
219 333.0 285.0
220 157.0 177.0
221 261.0 709.0
222 33.0 452.0
223 403.0 309.0
224 46.0 549.0
225 98.0 220.0
226 438.0 110.0
227 240.0 701.0
228 591.0 462.0
229 242.0 348.0
230 619.0 274.0
231 302.0 607.0
232 302.0 269.0
233 633.0 307.0
234 480.0 81.0
235 155.0 554.0
236 198.0 47.0
237 281.0 691.0
238 540.0 192.0
239 265.0 166.0
240 137.0 602.0
241 216.0 321.0
242 481.0 422.0
243 196.0 211.0
244 119.0 666.0
245 307.0 629.0
246 472.0 399.0
247 45.0 17.0
248 207.0 511.0
249 598.0 276.0
250 704.0 385.0
251 154.0 275.0
252 587.0 272.0
253 261.0 99.0
254 439.0 646.0
255 176.0 517.0
256 431.0 113.0
257 517.0 562.0
258 257.0 91.0
259 449.0 8.0
260 12.0 228.0
261 434.0 560.0
262 595.0 31.0
263 535.0 645.0
264 375.0 223.0
265 584.0 376.0
266 528.0 113.0
267 648.0 216.0
268 610.0 417.0
269 200.0 176.0
270 44.0 576.0
271 203.0 267.0
272 707.0 592.0
273 241.0 702.0
274 85.0 170.0
275 192.0 8.0
276 382.0 210.0
277 183.0 688.0
278 367.0 560.0
279 466.0 368.0
280 231.0 617.0
281 357.0 472.0
282 229.0 316.0
283 310.0 649.0
284 318.0 150.0
285 333.0 675.0
286 493.0 11.0
287 129.0 546.0
288 676.0 190.0
289 136.0 633.0
290 250.0 427.0
291 52.0 591.0
292 442.0 445.0
293 356.0 387.0
294 547.0 274.0
295 438.0 34.0
296 622.0 354.0
297 395.0 171.0
298 591.0 55.0
299 210.0 518.0
300 591.0 297.0
301 337.0 183.0
302 53.0 416.0
303 523.0 454.0
304 407.0 567.0
305 55.0 576.0
306 697.0 348.0
307 651.0 418.0
308 652.0 536.0
309 555.0 401.0
310 469.0 275.0
311 392.0 690.0
312 562.0 375.0
313 133.0 199.0
314 362.0 607.0
315 229.0 364.0
316 601.0 229.0
317 226.0 676.0
318 138.0 587.0
319 322.0 105.0
320 305.0 168.0
321 25.0 181.0
322 686.0 561.0
323 571.0 593.0
324 178.0 218.0
325 645.0 543.0
326 187.0 593.0
327 509.0 553.0
328 347.0 33.0
329 358.0 353.0
330 376.0 699.0
331 425.0 207.0
332 115.0 565.0
333 77.0 652.0
334 201.0 456.0
335 521.0 665.0
336 312.0 186.0
337 399.0 268.0
338 622.0 324.0
339 196.0 363.0
340 87.0 418.0
341 378.0 163.0
342 529.0 518.0
343 50.0 45.0
344 341.0 676.0
345 61.0 322.0
346 637.0 505.0
347 445.0 552.0
348 283.0 517.0
349 98.0 707.0
350 371.0 322.0
351 53.0 527.0
352 132.0 120.0
353 665.0 168.0
354 519.0 569.0
355 410.0 203.0
356 559.0 539.0
357 279.0 118.0
358 167.0 325.0
359 325.0 369.0
360 437.0 596.0
361 215.0 445.0
362 326.0 332.0
363 82.0 681.0
364 531.0 589.0
365 456.0 253.0
366 29.0 480.0
367 134.0 92.0
368 6.0 443.0
369 227.0 332.0
370 230.0 201.0
371 367.0 562.0
372 469.0 674.0
373 690.0 603.0
374 508.0 397.0
375 283.0 161.0
376 420.0 616.0
377 556.0 139.0
378 300.0 474.0
379 256.0 57.0
380 488.0 21.0
381 631.0 680.0
382 139.0 164.0
383 639.0 407.0
384 262.0 489.0
385 276.0 502.0
386 576.0 273.0
387 48.0 1.0
388 515.0 560.0
389 689.0 294.0
390 88.0 623.0
391 393.0 692.0
392 205.0 160.0
393 565.0 488.0
394 267.0 311.0
395 499.0 156.0
396 384.0 328.0
397 303.0 311.0
398 197.0 620.0
399 222.0 669.0
400 208.0 139.0
401 644.0 111.0
402 102.0 183.0
403 231.0 379.0
404 166.0 505.0
405 377.0 267.0
406 393.0 550.0
407 460.0 482.0
408 19.0 470.0
409 526.0 609.0
410 102.0 542.0
411 311.0 267.0
412 303.0 548.0
413 642.0 141.0
414 602.0 142.0
415 598.0 673.0
416 463.0 565.0
417 344.0 263.0
418 258.0 710.0
419 391.0 264.0
420 102.0 165.0
421 584.0 630.0
422 395.0 149.0
423 401.0 152.0
424 225.0 548.0
425 633.0 701.0
426 69.0 74.0
427 151.0 608.0
428 586.0 651.0
429 158.0 124.0
430 544.0 606.0
431 626.0 694.0
432 445.0 132.0
433 534.0 511.0
434 499.0 9.0
435 218.0 581.0
436 180.0 202.0
437 397.0 575.0
438 84.0 565.0
439 417.0 518.0
440 514.0 6.0
441 481.0 356.0
442 150.0 303.0
443 15.0 447.0
444 483.0 227.0
445 625.0 172.0
446 118.0 628.0
447 411.0 620.0
448 688.0 286.0
449 320.0 642.0
450 97.0 216.0
451 234.0 41.0
452 647.0 101.0
453 51.0 696.0
454 547.0 162.0
455 387.0 100.0
456 417.0 658.0
457 205.0 133.0
458 641.0 72.0
459 638.0 131.0
460 65.0 385.0
461 488.0 4.0
462 146.0 414.0
463 595.0 37.0
464 465.0 213.0
465 310.0 302.0
466 418.0 173.0
467 594.0 663.0
468 87.0 244.0
469 673.0 647.0
470 362.0 38.0
471 322.0 255.0
472 559.0 49.0
473 213.0 392.0
474 327.0 89.0
475 59.0 169.0
476 448.0 183.0
477 369.0 343.0
478 579.0 486.0
479 510.0 89.0
480 701.0 497.0
481 485.0 144.0
482 546.0 383.0
483 318.0 534.0
484 280.0 57.0
485 24.0 656.0
486 532.0 139.0
487 286.0 330.0
488 174.0 148.0
489 30.0 181.0
490 288.0 425.0
491 689.0 405.0
492 65.0 228.0
493 467.0 367.0
494 80.0 92.0
495 30.0 125.0
496 427.0 428.0
497 495.0 333.0
498 481.0 489.0
499 153.0 434.0
500 50.0 484.0
501 327.0 89.0
502 48.0 508.0
503 135.0 570.0
504 53.0 173.0
505 584.0 700.0
506 238.0 420.0
507 92.0 241.0
508 260.0 414.0
509 557.0 604.0
510 249.0 42.0
511 31.0 599.0
512 445.0 72.0
513 41.0 421.0
514 265.0 659.0
515 35.0 602.0
516 139.0 290.0
517 187.0 247.0
518 329.0 185.0
519 567.0 550.0
520 603.0 186.0
521 531.0 533.0
522 63.0 612.0
523 100.0 63.0
524 204.0 460.0
525 527.0 49.0
526 177.0 53.0
527 286.0 299.0
528 587.0 534.0
529 507.0 296.0
530 259.0 491.0
531 417.0 24.0
532 17.0 481.0
533 339.0 134.0
534 361.0 438.0
535 382.0 527.0
536 479.0 18.0
537 455.0 383.0
538 238.0 354.0
539 341.0 304.0
540 574.0 327.0
541 322.0 704.0
542 592.0 502.0
543 144.0 531.0
544 472.0 208.0
545 235.0 276.0
546 165.0 111.0
547 631.0 309.0
548 640.0 199.0
549 341.0 277.0
550 677.0 57.0
551 114.0 334.0
552 391.0 194.0
553 54.0 89.0
554 694.0 658.0
555 3.0 272.0
556 256.0 560.0
557 566.0 581.0
558 19.0 697.0
559 192.0 648.0
560 323.0 256.0
561 48.0 387.0
562 277.0 96.0
563 313.0 458.0
564 664.0 133.0
565 392.0 407.0
566 86.0 366.0
567 141.0 475.0
568 180.0 567.0
569 23.0 150.0
570 509.0 122.0
571 54.0 431.0
572 141.0 306.0
573 366.0 75.0
574 73.0 631.0
575 487.0 645.0
576 1.0 313.0
577 405.0 526.0
578 151.0 48.0
579 385.0 536.0
580 466.0 664.0
581 14.0 247.0
582 293.0 312.0
583 295.0 322.0
584 371.0 10.0
585 209.0 296.0
586 24.0 573.0
587 629.0 621.0
588 410.0 354.0
589 77.0 281.0
590 266.0 50.0
591 708.0 82.0
592 577.0 472.0
593 682.0 347.0
594 118.0 299.0
595 490.0 135.0
596 17.0 26.0
597 221.0 300.0
598 490.0 47.0
599 678.0 169.0
600 432.0 106.0
601 46.0 630.0
602 510.0 420.0
603 678.0 227.0
604 681.0 350.0
605 301.0 274.0
606 163.0 373.0
607 430.0 249.0
608 582.0 652.0
609 515.0 600.0
610 351.0 31.0
611 638.0 264.0
612 648.0 7.0
613 587.0 697.0
614 472.0 675.0
615 560.0 301.0
616 22.0 17.0
617 251.0 554.0
618 433.0 327.0
619 669.0 405.0
620 645.0 163.0
621 455.0 527.0
622 446.0 635.0
623 160.0 561.0
624 301.0 167.0
625 528.0 564.0
626 260.0 120.0
627 685.0 355.0
628 558.0 603.0
629 26.0 10.0
630 24.0 580.0
631 298.0 226.0
632 564.0 295.0
633 263.0 604.0
634 448.0 504.0
635 646.0 154.0
636 678.0 339.0
637 393.0 709.0
638 424.0 204.0
639 353.0 480.0
640 205.0 79.0
641 440.0 289.0
642 305.0 533.0
643 78.0 3.0
644 494.0 453.0
645 704.0 254.0
646 353.0 144.0
647 186.0 209.0
648 275.0 507.0
649 496.0 84.0
650 680.0 322.0
651 218.0 40.0
652 591.0 422.0
653 197.0 259.0
654 248.0 417.0
655 150.0 258.0
656 388.0 382.0
657 614.0 429.0
658 309.0 650.0
659 52.0 180.0
660 42.0 566.0
661 533.0 168.0
662 163.0 153.0
663 41.0 644.0
664 20.0 325.0
665 489.0 654.0
666 453.0 302.0
667 219.0 185.0
668 282.0 481.0
669 88.0 154.0
670 213.0 318.0
671 225.0 316.0
672 707.0 273.0
673 251.0 425.0
674 483.0 182.0
675 499.0 247.0
676 700.0 486.0
677 486.0 496.0
678 239.0 590.0
679 291.0 136.0
680 531.0 361.0
681 107.0 351.0
682 637.0 98.0
683 326.0 145.0
684 351.0 396.0
685 203.0 482.0
686 129.0 89.0
687 640.0 228.0
688 349.0 211.0
689 691.0 301.0
690 667.0 629.0
691 52.0 142.0
692 102.0 280.0
693 61.0 504.0
694 662.0 532.0
695 73.0 534.0
696 199.0 521.0
697 354.0 225.0
698 338.0 332.0
699 357.0 243.0
700 696.0 220.0
701 617.0 423.0
702 150.0 177.0
703 696.0 387.0
704 638.0 579.0
705 18.0 424.0
706 99.0 286.0
707 469.0 4.0
708 382.0 258.0
709 299.0 529.0
710 459.0 96.0
EOF





